unsat
(:max-memory         18.52
 :memory             18.33
 :nlsat-arith-var    3
 :nlsat-atoms        12
 :nlsat-bool-var     1
 :nlsat-clauses      8
 :nlsat-conflicts    3
 :nlsat-propagations 10
 :nlsat-stages       3
 :num-allocs         69701
 :rlimit-count       3440
 :time               0.00
 :total-time         0.01)
